% seed = 0

mint = 41;
% maxt = 155;

nActs = 62;
dur = [0,2,2,1,3,1,2,4,2,2,3,2,3,1,3,3,1,1,1,2,1,3,2,2,2,3,3,5,3,5,2,3,6,1,1,1,3,3,1,1,6,3,2,2,4,4,3,4,2,3,1,2,4,2,2,2,5,5,2,3,4,0];

nSkills = 9;
sreq = [| 0,0,0,0,0,0,0,0,0,
	| 0,0,0,0,1,2,1,0,0,
	| 0,0,0,0,0,0,1,0,0,
	| 0,0,3,0,1,0,0,0,0,
	| 0,0,0,1,0,1,0,0,0,
	| 0,0,2,1,0,0,1,1,0,
	| 0,0,1,0,0,0,0,1,0,
	| 0,0,0,0,1,1,1,2,0,
	| 0,0,1,0,0,2,0,0,0,
	| 0,0,1,0,1,1,0,1,0,
	| 0,0,1,1,0,1,0,1,0,
	| 0,0,2,0,1,0,1,0,0,
	| 0,0,0,0,1,0,0,2,0,
	| 0,0,0,0,0,2,0,1,0,
	| 0,0,1,0,1,0,1,0,0,
	| 0,0,1,0,0,1,0,0,0,
	| 0,0,0,0,1,0,0,0,0,
	| 0,0,2,0,0,1,1,0,1,
	| 0,1,2,0,0,0,0,1,0,
	| 0,0,0,0,0,1,0,0,0,
	| 0,1,0,0,1,0,0,0,0,
	| 0,0,1,0,0,0,0,1,0,
	| 1,0,0,1,1,1,1,0,0,
	| 0,0,1,0,0,1,1,0,0,
	| 0,0,1,0,1,0,0,1,0,
	| 0,0,0,0,1,0,0,0,0,
	| 0,0,0,0,1,0,0,0,0,
	| 0,0,1,0,0,3,0,1,0,
	| 0,0,0,0,0,1,0,0,0,
	| 0,0,1,0,0,2,0,0,0,
	| 0,0,0,0,1,1,0,3,0,
	| 0,0,0,0,0,2,0,0,0,
	| 0,1,0,0,0,1,1,0,0,
	| 0,0,1,0,0,0,0,0,0,
	| 0,1,0,0,0,2,2,0,0,
	| 0,0,0,0,1,2,1,0,0,
	| 0,0,0,1,0,1,1,1,0,
	| 0,0,0,0,0,1,1,0,0,
	| 0,1,0,1,0,1,0,1,0,
	| 0,0,0,0,1,0,0,1,0,
	| 0,0,1,0,1,1,0,1,0,
	| 0,0,0,0,0,0,0,1,0,
	| 0,1,1,0,0,3,0,0,0,
	| 0,0,0,0,2,0,0,0,0,
	| 0,0,0,0,1,1,0,3,0,
	| 0,0,0,0,0,0,0,1,0,
	| 0,0,0,0,0,0,1,0,0,
	| 0,1,0,0,0,0,2,0,0,
	| 0,0,2,0,1,0,0,0,0,
	| 0,0,1,0,0,1,0,0,0,
	| 0,0,1,0,0,1,0,0,0,
	| 0,0,1,0,0,0,2,1,0,
	| 0,0,0,0,0,2,1,2,0,
	| 1,0,1,0,2,0,0,1,0,
	| 0,0,1,0,0,2,0,2,0,
	| 0,0,0,0,0,0,1,1,0,
	| 0,0,1,0,1,0,2,1,0,
	| 0,0,0,1,1,0,0,0,0,
	| 0,0,0,0,0,3,1,1,0,
	| 0,0,0,0,0,0,0,1,0,
	| 0,0,0,1,0,1,0,1,0,
	| 0,0,0,0,0,0,0,0,0, |];

% SumOfsreq = 184;

nResources = 16;
mastery = [| false,false,false,false,true,true,false,false,false,
	| false,false,false,false,false,true,false,false,false,
	| false,false,true,false,false,false,false,false,false,
	| false,false,false,false,false,false,true,true,true,
	| false,false,false,false,true,true,false,false,true,
	| false,false,true,false,false,false,false,false,false,
	| false,false,false,false,false,false,false,true,true,
	| false,false,false,false,true,true,false,false,false,
	| false,false,false,false,false,false,true,true,true,
	| false,false,false,false,false,true,false,false,false,
	| false,false,false,true,true,true,false,false,false,
	| false,false,false,false,false,false,true,true,true,
	| false,false,false,true,true,true,true,true,true,
	| false,true,true,false,false,false,true,true,true,
	| true,true,true,false,false,false,false,false,false,
	| false,false,false,false,false,false,true,true,true, |];

nPrecs = 112;
pred = [1,1,1,2,2,2,3,3,3,4,4,5,5,5,6,6,6,7,8,8,8,9,9,10,10,11,11,11,12,12,12,13,14,14,14,15,15,16,16,17,18,19,20,20,20,21,21,21,22,22,23,23,24,25,25,26,27,27,27,28,29,29,30,30,30,31,31,32,32,33,34,34,34,35,36,36,37,37,37,38,38,39,39,40,41,41,42,42,43,43,43,44,45,46,47,47,47,48,49,50,51,52,52,53,54,55,56,57,58,59,60,61];
succ = [2,3,4,10,5,16,9,28,24,11,13,11,6,7,26,14,42,8,20,19,12,34,15,17,46,17,18,21,41,46,56,23,33,49,37,42,29,21,39,22,32,23,49,28,23,44,45,31,44,40,25,26,35,27,29,57,33,36,53,55,30,32,33,36,37,43,38,50,39,59,45,54,40,58,45,46,60,48,40,42,47,61,54,59,50,47,57,56,50,51,58,53,56,51,57,52,48,51,59,52,55,53,54,55,60,61,58,60,61,62,62,62];

nUnrels = 1024;
unpred = [2,2,2,2,2,2,2,2,3,3,3,3,3,3,3,3,3,3,3,3,3,3,3,3,3,3,3,3,3,3,3,3,3,3,3,3,4,4,4,4,4,4,4,4,4,4,4,4,4,4,4,4,4,4,5,5,5,5,5,5,5,5,6,6,6,6,6,6,6,6,6,6,6,6,6,6,6,6,6,6,6,6,6,6,6,6,6,6,6,6,6,6,6,6,6,6,6,6,6,6,6,7,7,7,7,7,7,7,7,7,7,7,7,7,7,7,7,7,7,7,8,8,8,8,8,8,8,8,8,8,8,8,8,8,8,8,8,8,8,9,9,9,9,9,9,9,9,9,9,9,9,9,9,9,9,9,9,9,9,9,9,9,9,9,9,10,10,10,10,10,10,10,10,10,10,10,10,10,10,10,10,10,10,10,10,10,10,10,10,10,10,10,10,10,10,10,10,10,10,10,10,10,10,10,10,10,11,11,11,11,11,11,11,11,11,11,11,11,11,11,11,11,11,11,11,11,11,11,11,12,12,12,12,12,12,12,12,12,12,12,12,12,12,12,12,12,12,12,12,12,12,12,12,12,12,12,12,12,12,12,12,12,12,13,13,13,13,13,13,13,13,13,13,13,13,13,13,13,13,13,13,13,13,13,14,14,14,14,14,14,14,14,14,14,14,14,14,14,14,14,14,14,14,14,14,14,14,14,14,14,14,14,14,14,14,14,14,14,14,14,14,15,15,15,15,15,15,15,15,15,15,15,15,15,15,15,15,15,15,15,15,15,15,16,16,16,16,16,16,16,16,16,16,16,16,16,16,16,16,16,16,16,16,16,16,16,16,17,17,17,17,17,17,17,17,17,17,17,17,17,17,17,17,17,17,17,17,17,17,17,17,17,17,17,17,17,17,17,17,17,17,17,17,17,18,18,18,18,18,18,18,18,18,18,18,18,18,18,18,18,18,18,18,18,18,18,18,18,18,18,18,18,18,18,18,18,18,18,19,19,19,19,19,19,19,19,19,19,19,19,19,19,19,20,20,20,20,20,20,20,20,20,20,20,20,21,21,21,21,21,21,21,21,21,21,21,21,21,21,21,21,21,21,21,21,21,22,22,22,22,22,22,22,22,22,22,22,22,22,22,22,22,22,22,22,22,22,22,22,22,22,22,22,22,22,22,22,22,22,23,23,23,23,23,23,23,23,23,23,23,23,24,24,24,24,24,24,24,24,24,24,24,24,24,24,24,24,24,24,24,24,24,24,24,24,24,24,24,24,24,24,24,24,24,24,25,25,25,25,25,25,25,25,25,25,25,25,25,26,26,26,26,26,26,26,26,26,26,26,26,26,26,26,26,26,26,26,26,26,26,26,26,26,26,26,26,26,26,26,26,26,27,27,27,27,27,27,27,27,27,27,27,27,27,27,27,27,27,27,27,27,27,27,27,28,28,28,28,28,28,28,28,28,28,28,28,28,28,28,28,28,28,28,28,28,28,28,28,28,28,28,28,28,28,28,29,29,29,29,29,29,29,29,29,29,29,30,30,30,30,30,30,30,30,30,30,30,30,30,30,30,30,30,31,31,31,31,31,31,31,31,31,31,31,31,31,31,32,32,32,32,32,32,32,32,32,32,32,32,32,32,32,32,32,32,32,32,32,33,33,33,33,33,33,33,33,33,33,33,33,33,33,33,33,33,33,33,33,33,33,33,33,33,33,33,34,34,34,34,34,34,34,34,34,34,34,34,34,34,34,34,34,34,34,35,35,35,35,35,35,35,35,35,35,35,35,35,35,35,35,35,35,35,35,35,35,35,35,36,36,36,36,36,36,36,36,36,36,36,36,36,36,36,36,36,36,37,37,37,37,37,37,37,37,37,37,37,37,37,37,37,37,37,38,38,38,38,38,38,38,38,38,38,39,39,39,39,39,39,39,39,39,39,39,39,39,39,39,39,39,39,39,40,40,40,40,40,40,40,40,40,40,40,40,40,40,40,40,40,40,40,40,41,41,41,41,41,41,41,41,41,42,42,42,42,42,42,42,42,42,42,42,42,42,42,43,43,43,43,43,43,43,43,43,44,44,44,44,44,44,44,44,44,44,44,44,44,44,45,45,45,45,45,45,45,45,45,45,45,45,45,46,46,46,46,46,46,46,46,46,46,46,46,47,47,47,47,47,48,48,48,48,48,48,48,48,48,48,49,49,49,49,49,49,49,49,49,49,49,50,50,50,50,50,51,51,51,51,51,51,51,51,52,52,52,52,53,53,53,53,53,53,54,54,54,54,54,54,55,55,55,55,55,56,56,56,57,57,57,58,58,59,59,60];
unsucc = [3,4,9,13,15,24,34,35,4,5,6,7,8,10,11,12,13,14,16,17,18,19,20,21,22,23,25,26,27,31,38,41,43,44,47,49,5,6,7,8,9,10,12,14,15,16,19,20,24,28,34,35,41,49,9,10,13,15,16,24,34,35,7,8,9,10,11,12,13,15,16,17,18,19,20,21,22,23,24,25,27,28,29,30,31,32,34,35,36,38,39,41,43,44,45,46,47,50,52,53,54,9,10,11,13,14,15,16,17,18,21,22,24,31,34,35,38,42,43,44,9,10,11,13,14,15,16,17,18,21,22,24,31,34,35,38,42,43,44,10,11,12,13,14,16,17,18,19,20,21,22,23,24,25,26,27,28,31,35,38,41,43,44,47,49,11,12,13,14,15,16,18,19,20,21,23,24,25,26,27,28,29,30,31,32,33,34,35,36,37,38,39,41,42,43,45,47,48,49,50,52,54,56,57,58,60,12,13,14,15,16,19,20,23,24,25,26,27,28,29,30,33,34,35,36,37,41,46,49,13,14,15,16,17,18,19,20,21,22,23,24,25,26,27,28,29,30,31,32,33,34,35,36,37,38,39,40,42,43,44,45,49,59,14,15,16,17,18,19,20,21,22,24,28,31,34,35,38,41,42,43,44,47,49,15,16,17,18,19,20,21,22,23,24,25,26,27,28,29,30,31,32,34,35,36,38,39,41,42,43,44,45,46,47,50,52,53,54,56,57,58,16,17,18,19,20,21,22,23,24,25,26,27,28,31,34,35,38,41,43,44,47,49,17,18,19,20,22,23,24,25,26,27,28,29,30,32,33,34,35,36,37,40,41,46,49,59,18,19,20,21,23,24,25,26,27,28,29,30,31,32,33,34,35,36,37,38,39,41,42,43,45,46,47,48,49,50,51,52,54,56,57,58,60,19,20,21,22,23,24,25,26,27,28,29,30,31,33,34,35,36,37,38,40,41,42,43,44,45,46,47,48,49,51,56,57,58,59,20,21,22,24,28,31,34,35,38,41,42,43,44,47,49,21,22,24,31,34,35,38,41,42,43,44,47,22,23,24,25,26,27,28,29,30,32,33,34,35,36,37,39,40,41,46,49,59,23,24,25,26,27,28,29,30,31,32,33,34,35,36,37,38,39,41,42,43,45,46,47,48,49,50,51,52,54,56,57,58,60,24,28,31,34,35,38,41,42,43,44,47,49,25,26,27,28,29,30,31,32,33,34,36,37,38,39,40,41,42,43,44,45,46,47,48,49,50,51,52,53,54,55,56,57,59,60,26,28,31,34,35,38,41,42,43,44,47,49,57,27,28,29,30,31,32,33,34,35,36,37,38,39,40,41,42,43,44,45,46,47,48,49,50,51,52,53,54,55,56,58,59,61,28,29,30,31,32,34,35,37,38,39,40,41,42,43,44,47,48,49,50,52,54,57,60,29,30,31,32,33,34,35,36,37,38,39,40,41,42,43,44,45,46,47,48,49,50,51,52,53,54,56,57,58,59,60,31,34,35,38,41,42,43,44,47,49,57,31,32,34,35,38,39,41,42,43,44,47,49,50,52,53,54,57,32,33,34,35,36,37,39,40,41,44,45,46,49,59,33,34,35,36,37,38,40,41,42,43,44,45,46,47,48,49,51,56,57,58,59,34,35,36,37,38,39,40,41,42,43,44,45,46,47,48,49,50,51,52,53,54,55,56,57,58,60,61,35,36,37,38,39,41,42,43,44,46,47,48,49,50,51,52,53,55,57,36,37,38,39,40,41,42,43,44,45,46,47,48,49,50,51,52,53,54,55,56,57,59,60,37,38,39,40,41,42,43,44,47,48,49,50,52,53,54,57,59,60,38,39,41,42,43,44,45,46,47,49,50,52,53,54,56,57,58,39,40,41,43,44,45,46,49,50,59,40,41,42,43,44,45,46,47,48,49,50,51,52,53,55,56,57,58,59,41,42,43,44,45,46,47,48,49,50,51,52,53,54,55,56,57,58,60,61,42,43,44,45,46,49,56,58,59,43,44,45,46,47,48,49,50,51,52,53,54,55,59,44,45,46,47,48,49,56,57,59,45,46,47,48,49,50,51,52,54,56,57,58,59,60,46,47,48,49,50,51,52,53,54,55,57,59,60,47,48,49,50,52,53,54,56,57,58,59,60,49,50,56,58,59,49,50,52,53,54,56,57,58,59,60,50,51,52,53,54,55,56,57,58,60,61,51,56,57,58,59,52,53,54,56,57,58,59,60,56,57,58,59,54,56,57,58,59,60,55,56,57,58,59,61,56,57,58,59,60,57,59,60,58,59,61,59,60,60,61,61];

USEFUL_RES = [{},
	{1,2,4,5,8,9,10,11,12,13,14,16},
	{4,9,12,13,14,16},
	{1,3,5,6,8,11,13,14,15},
	{1,2,5,8,10,11,13},
	{3,4,6,7,9,11,12,13,14,15,16},
	{3,4,6,7,9,12,13,14,15,16},
	{1,2,4,5,7,8,9,10,11,12,13,14,16},
	{1,2,3,5,6,8,10,11,13,14,15},
	{1,2,3,4,5,6,7,8,9,10,11,12,13,14,15,16},
	{1,2,3,4,5,6,7,8,9,10,11,12,13,14,15,16},
	{1,3,4,5,6,8,9,11,12,13,14,15,16},
	{1,4,5,7,8,9,11,12,13,14,16},
	{1,2,4,5,7,8,9,10,11,12,13,14,16},
	{1,3,4,5,6,8,9,11,12,13,14,15,16},
	{1,2,3,5,6,8,10,11,13,14,15},
	{1,5,8,11,13},
	{1,2,3,4,5,6,7,8,9,10,11,12,13,14,15,16},
	{3,4,6,7,9,12,13,14,15,16},
	{1,2,5,8,10,11,13},
	{1,5,8,11,13,14,15},
	{3,4,6,7,9,12,13,14,15,16},
	{1,2,4,5,8,9,10,11,12,13,14,15,16},
	{1,2,3,4,5,6,8,9,10,11,12,13,14,15,16},
	{1,3,4,5,6,7,8,9,11,12,13,14,15,16},
	{1,5,8,11,13},
	{1,5,8,11,13},
	{1,2,3,4,5,6,7,8,9,10,11,12,13,14,15,16},
	{1,2,5,8,10,11,13},
	{1,2,3,5,6,8,10,11,13,14,15},
	{1,2,4,5,7,8,9,10,11,12,13,14,16},
	{1,2,5,8,10,11,13},
	{1,2,4,5,8,9,10,11,12,13,14,15,16},
	{3,6,14,15},
	{1,2,4,5,8,9,10,11,12,13,14,15,16},
	{1,2,4,5,8,9,10,11,12,13,14,16},
	{1,2,4,5,7,8,9,10,11,12,13,14,16},
	{1,2,4,5,8,9,10,11,12,13,14,16},
	{1,2,4,5,7,8,9,10,11,12,13,14,15,16},
	{1,4,5,7,8,9,11,12,13,14,16},
	{1,2,3,4,5,6,7,8,9,10,11,12,13,14,15,16},
	{4,7,9,12,13,14,16},
	{1,2,3,5,6,8,10,11,13,14,15},
	{1,5,8,11,13},
	{1,2,4,5,7,8,9,10,11,12,13,14,16},
	{4,7,9,12,13,14,16},
	{4,9,12,13,14,16},
	{4,9,12,13,14,15,16},
	{1,3,5,6,8,11,13,14,15},
	{1,2,3,5,6,8,10,11,13,14,15},
	{1,2,3,5,6,8,10,11,13,14,15},
	{3,4,6,7,9,12,13,14,15,16},
	{1,2,4,5,7,8,9,10,11,12,13,14,16},
	{1,3,4,5,6,7,8,9,11,12,13,14,15,16},
	{1,2,3,4,5,6,7,8,9,10,11,12,13,14,15,16},
	{4,7,9,12,13,14,16},
	{1,3,4,5,6,7,8,9,11,12,13,14,15,16},
	{1,5,8,11,13},
	{1,2,4,5,7,8,9,10,11,12,13,14,16},
	{4,7,9,12,13,14,16},
	{1,2,4,5,7,8,9,10,11,12,13,14,16},
	{}];

POTENTIAL_ACT = [{2,4,5,8,9,10,11,12,13,14,15,16,17,18,20,21,23,24,25,26,27,28,29,30,31,32,33,35,36,37,38,39,40,41,43,44,45,49,50,51,53,54,55,57,58,59,61},
	{2,5,8,9,10,11,14,16,18,20,23,24,28,29,30,31,32,33,35,36,37,38,39,41,43,45,50,51,53,55,59,61},
	{4,6,7,9,10,11,12,15,16,18,19,22,24,25,28,30,34,41,43,49,50,51,52,54,55,57},
	{2,3,6,7,8,10,11,12,13,14,15,18,19,22,23,24,25,28,31,33,35,36,37,38,39,40,41,42,45,46,47,48,52,53,54,55,56,57,59,60,61},
	{2,4,5,8,9,10,11,12,13,14,15,16,17,18,20,21,23,24,25,26,27,28,29,30,31,32,33,35,36,37,38,39,40,41,43,44,45,49,50,51,53,54,55,57,58,59,61},
	{4,6,7,9,10,11,12,15,16,18,19,22,24,25,28,30,34,41,43,49,50,51,52,54,55,57},
	{6,7,8,10,11,13,14,18,19,22,25,28,31,37,39,40,41,42,45,46,52,53,54,55,56,57,59,60,61},
	{2,4,5,8,9,10,11,12,13,14,15,16,17,18,20,21,23,24,25,26,27,28,29,30,31,32,33,35,36,37,38,39,40,41,43,44,45,49,50,51,53,54,55,57,58,59,61},
	{2,3,6,7,8,10,11,12,13,14,15,18,19,22,23,24,25,28,31,33,35,36,37,38,39,40,41,42,45,46,47,48,52,53,54,55,56,57,59,60,61},
	{2,5,8,9,10,11,14,16,18,20,23,24,28,29,30,31,32,33,35,36,37,38,39,41,43,45,50,51,53,55,59,61},
	{2,4,5,6,8,9,10,11,12,13,14,15,16,17,18,20,21,23,24,25,26,27,28,29,30,31,32,33,35,36,37,38,39,40,41,43,44,45,49,50,51,53,54,55,57,58,59,61},
	{2,3,6,7,8,10,11,12,13,14,15,18,19,22,23,24,25,28,31,33,35,36,37,38,39,40,41,42,45,46,47,48,52,53,54,55,56,57,59,60,61},
	{2,3,4,5,6,7,8,9,10,11,12,13,14,15,16,17,18,19,20,21,22,23,24,25,26,27,28,29,30,31,32,33,35,36,37,38,39,40,41,42,43,44,45,46,47,48,49,50,51,52,53,54,55,56,57,58,59,60,61},
	{2,3,4,6,7,8,9,10,11,12,13,14,15,16,18,19,21,22,23,24,25,28,30,31,33,34,35,36,37,38,39,40,41,42,43,45,46,47,48,49,50,51,52,53,54,55,56,57,59,60,61},
	{4,6,7,9,10,11,12,15,16,18,19,21,22,23,24,25,28,30,33,34,35,39,41,43,48,49,50,51,52,54,55,57},
	{2,3,6,7,8,10,11,12,13,14,15,18,19,22,23,24,25,28,31,33,35,36,37,38,39,40,41,42,45,46,47,48,52,53,54,55,56,57,59,60,61}];
